155
1000
53
314
75
690
332
80
409
450
486
88
562
86
611
145
121
677
311
149
65
393
292
318
168
451
74
175
14
242
226
283
592
241
667
156
379
421
14
90
686
313
41
214
251
252
265
35
134
122
749
56
401
385
217
40
21
253
6
37
273
99
401
226
679
410
672
237
411
149
145
682
394
310
550
411
414
690
593
368
117
565
57
347
125
1
255
76
321
232
129
464
363
148
403
91
488
597
20
568
143
290
615
355
57
639
435
21
710
466
432
606
249
462
145
84
692
72
229
60
236
372
589
21
4
82
212
289
406
195
575
485
19
156
213
534
156
448
471
106
370
340
139
55
58
300
158
134
226
320
67
503
187
259
406
208
80
